n_res = 4;
rcap = [9, 12, 106, 90];
rtype = [1, 1, 2, 2];
n_tasks = 16;
modes = [ {1}, {2}, {3}, {4}, {5}, {6}, {7}, {8}, {9}, {10}, {11}, {12}, {13}, {14}, {15}, {16} ];
succ = [ {12, 14, 15}, {4, 7, 13}, {4, 8, 13}, {5, 6, 9}, {10, 11, 12}, {14, 16}, {8, 11}, {12}, {10, 11}, {14, 15}, {16}, {16}, {15}, {}, {}, {} ];
n_opt = 16;
dur = [1, 9, 8, 3, 10, 5, 7, 1, 7, 2, 10, 8, 4, 3, 2, 1];
rreq = [|  4,  0,  8,  0,  0,  0,  0,  0,  6,  8,  0,  0,  0,  7,  0,  5
        |  0,  5,  0,  5,  2,  2,  3,  7,  0,  0,  9,  9,  3,  0,  3,  0
        | 10,  6, 10,  8,  6,  4,  9,  5,  6,  2,  2, 10,  8,  7, 10,  3
        |  6,  6,  4,  7,  6,  4,  6,  5,  6,  5,  7,  4,  9,  4,  9,  2 |];
